CPXPARAM_TimeLimit                               3600
CPXPARAM_Read_DataCheck                          1
Tried aggregator 1 time.
MIP Presolve eliminated 2514 rows and 0 columns.
MIP Presolve modified 4178 coefficients.
Reduced MIP has 169366 rows, 54451 columns, and 611960 nonzeros.
Reduced MIP has 2850 binaries, 0 generals, 0 SOSs, and 0 indicators.
Presolve time = 0.15 sec. (225.80 ticks)
Found incumbent of value 11735.000000 after 0.29 sec. (405.78 ticks)
Probing time = 0.04 sec. (25.43 ticks)
Tried aggregator 1 time.
Reduced MIP has 169366 rows, 54451 columns, and 611960 nonzeros.
Reduced MIP has 2850 binaries, 0 generals, 0 SOSs, and 0 indicators.
Presolve time = 0.30 sec. (305.41 ticks)
Probing time = 0.04 sec. (25.29 ticks)
MIP emphasis: balance optimality and feasibility.
MIP search method: dynamic search.
Parallel mode: deterministic, using up to 8 threads.
Root relaxation solution time = 615.44 sec. (152451.78 ticks)

        Nodes                                         Cuts/
   Node  Left     Objective  IInf  Best Integer    Best Bound    ItCnt     Gap

*     0+    0                        11735.0000      990.0000            91.56%
      0     0     1005.8561  2584    11735.0000     1005.8561   225587   91.43%
      0     0     1006.4332  2639    11735.0000    Cuts: 1587   352775   91.42%
      0     0     1007.8152  2637    11735.0000    Cuts: 2594   450282   91.41%
      0     0     1010.7379  2666    11735.0000    Cuts: 2574   575468   91.39%
      0     0     1012.6148  2516    11735.0000    Cuts: 2128   674387   91.37%

Implied bound cuts applied:  392
Flow cuts applied:  736
Mixed integer rounding cuts applied:  2063

Root node processing (before b&c):
  Real time             = 3600.07 sec. (2051573.13 ticks)
Parallel b&c, 8 threads:
  Real time             =    0.00 sec. (0.00 ticks)
  Sync time (average)   =    0.00 sec.
  Wait time (average)   =    0.00 sec.
                          ------------
Total (root+branch&cut) = 3600.07 sec. (2051573.13 ticks)
